
Gurobi 13.0.2 (win64) logging started Fri Jul 24 10:23:32 2026

Set parameter LogFile to value "E:\codes\ExactEBRP\results\gf_c0_mechanism_transfer_c5_round30\runs\stage3__V12_M1__c3_replica__300s\external\native_logs\R.1.0.0.1.1.0.0.0.1.1_lp.gurobi.log"
Gurobi Optimizer version 13.0.2 build v13.0.2rc1 (win64 - Windows 10.0 (19045.2))

CPU model: 12th Gen Intel(R) Core(TM) i7-12700KF, instruction set [SSE2|AVX|AVX2]
Thread count: 12 physical cores, 20 logical processors, using up to 1 threads

Non-default parameters:
TimeLimit  1.3513290299999994e+01
MIPGap  0
MIPGapAbs  0
LogToConsole  0
Threads  1

Optimize a model with 6225 rows, 648 columns and 59365 nonzeros (Min)
Model fingerprint: 0xde4f8c48
Model has 13 linear objective coefficients
Coefficient statistics:
  Matrix range     [2e-03, 1e+05]
  Objective range  [2e-03, 1e+00]
  Bounds range     [1e-01, 8e+01]
  RHS range        [3e-02, 1e+06]

Presolve removed 256 rows and 38 columns
Presolve time: 0.02s
Presolved: 5969 rows, 611 columns, 58512 nonzeros

Iteration    Objective       Primal Inf.    Dual Inf.      Time
       0    2.1757273e-01   1.379446e+02   0.000000e+00      0s
     674    3.1640425e-01   0.000000e+00   0.000000e+00      0s

Solved in 674 iterations and 0.05 seconds (0.20 work units)
Optimal objective  3.164042471e-01

User-callback calls 817, time in user-callback 0.00 sec
